CPRCP.dzn
% Cranbourne and Pakenham lines for planning %
nStations = 30; % number of station in a single line in direction order 1->10 and 10->1
turnbackLocs = []; % stations that allow trains to turn-back
stablingLocs = [1, 8, 15, 20, 23, 30]; % stations that allow 

nRoutes = 11;
maxRouteLength = 26;
possibleRoutes = [|
29,28,27,26,25,24,23,0,0,0,0,0,0,0,0,0,0,0,0,0,0,0,0,0,0,0 | 
29,28,27,26,25,24,23,19,18,17,16,15,0,0,0,0,0,0,0,0,0,0,0,0,0,0 | 
29,28,27,26,25,24,23,19,18,17,16,15,14,13,12,11,10,9,8,0,0,0,0,0,0,0 | 
29,28,27,26,25,24,23,19,18,17,16,15,14,13,12,11,10,9,8,7,6,5,4,3,2,1 | 
22,21,20,0,0,0,0,0,0,0,0,0,0,0,0,0,0,0,0,0,0,0,0,0,0,0 | 
22,21,20,19,18,17,16,15,0,0,0,0,0,0,0,0,0,0,0,0,0,0,0,0,0,0 | 
%22,21,20,19,18,17,16,15,14,13,12,11,10,9,8,0,0,0,0,0,0,0,0,0,0,0 | 
22,21,20,19,18,17,16,15,14,13,12,11,10,9,8,7,6,5,4,3,2,1,0,0,0,0 | 
19,18,17,16,15,0,0,0,0,0,0,0,0,0,0,0,0,0,0,0,0,0,0,0,0,0 | 
%19,18,17,16,15,14,13,12,11,10,9,8,0,0,0,0,0,0,0,0,0,0,0,0,0,0 | 
19,18,17,16,15,14,13,12,11,10,9,8,7,6,5,4,3,2,1,0,0,0,0,0,0,0 | 
%14,13,12,11,10,9,8,0,0,0,0,0,0,0,0,0,0,0,0,0,0,0,0,0,0,0 | 
14,13,12,11,10,9,8,7,6,5,4,3,2,1,0,0,0,0,0,0,0,0,0,0,0,0 | 
7,6,5,4,3,2,1,0,0,0,0,0,0,0,0,0,0,0,0,0,0,0,0,0,0,0
|];

odmatrix = [| 
0,0,0,0,0,0,0,0,0,0,0,0,0,0,0,0,0,0,0,0,0,0,0,0,0,0,0,0,0,0 |
1710,0,0,0,0,0,0,0,0,0,0,0,0,0,0,0,0,0,0,0,0,0,0,0,0,0,0,0,0,0 |
84,137,0,0,0,0,0,0,0,0,0,0,0,0,0,0,0,0,0,0,0,0,0,0,0,0,0,0,0,0 |
160,225,252,0,0,0,0,0,0,0,0,0,0,0,0,0,0,0,0,0,0,0,0,0,0,0,0,0,0,0 |
58,87,90,284,0,0,0,0,0,0,0,0,0,0,0,0,0,0,0,0,0,0,0,0,0,0,0,0,0,0 |
16,32,11,20,34,0,0,0,0,0,0,0,0,0,0,0,0,0,0,0,0,0,0,0,0,0,0,0,0,0 |
60,92,27,55,151,36,0,0,0,0,0,0,0,0,0,0,0,0,0,0,0,0,0,0,0,0,0,0,0,0 |
118,202,112,184,292,37,56,0,0,0,0,0,0,0,0,0,0,0,0,0,0,0,0,0,0,0,0,0,0,0 |
100,211,163,341,437,79,116,63,0,0,0,0,0,0,0,0,0,0,0,0,0,0,0,0,0,0,0,0,0,0 |
180,249,253,402,465,75,170,72,11,0,0,0,0,0,0,0,0,0,0,0,0,0,0,0,0,0,0,0,0,0 |
110,173,112,280,309,57,112,64,5,6,0,0,0,0,0,0,0,0,0,0,0,0,0,0,0,0,0,0,0,0 |
221,401,296,608,589,95,268,117,12,8,41,0,0,0,0,0,0,0,0,0,0,0,0,0,0,0,0,0,0,0 |
156,208,150,309,334,51,131,77,2,7,18,64,0,0,0,0,0,0,0,0,0,0,0,0,0,0,0,0,0,0 |
129,272,171,341,446,86,138,140,9,4,19,36,31,0,0,0,0,0,0,0,0,0,0,0,0,0,0,0,0,0 |
49,105,70,107,115,29,57,46,4,1,17,25,11,28,0,0,0,0,0,0,0,0,0,0,0,0,0,0,0,0 |
106,189,104,288,279,90,162,100,20,9,21,41,21,68,50,0,0,0,0,0,0,0,0,0,0,0,0,0,0,0 |
38,63,25,91,93,30,62,31,8,0,13,18,18,20,16,46,0,0,0,0,0,0,0,0,0,0,0,0,0,0 |
69,148,60,219,147,87,127,76,2,2,11,22,28,38,17,117,15,0,0,0,0,0,0,0,0,0,0,0,0,0 |
107,173,122,329,258,29,98,50,3,3,15,29,22,24,14,51,5,47,0,0,0,0,0,0,0,0,0,0,0,0 |
307,438,337,732,659,113,245,133,18,11,62,75,91,116,57,203,6,229,42,0,0,0,0,0,0,0,0,0,0,0 |
74,120,79,211,198,50,75,63,3,5,19,28,11,13,20,49,0,24,6,151,0,0,0,0,0,0,0,0,0,0 |
114,191,120,331,265,78,164,97,9,2,32,47,37,73,1,65,3,40,11,287,13,0,0,0,0,0,0,0,0,0 |
235,333,240,737,584,123,232,115,17,12,66,32,77,89,35,111,4,73,15,421,36,146,0,0,0,0,0,0,0,0 |
152,264,207,451,409,85,121,70,3,9,26,29,56,51,25,102,1,67,18,166,0,0,0,0,0,0,0,0,0,0 |
62,148,61,259,179,84,162,118,10,6,17,27,37,44,23,83,0,61,11,246,0,0,0,36,0,0,0,0,0,0 |
109,206,68,291,223,60,115,85,14,1,25,24,19,55,24,63,4,33,7,148,0,0,0,37,32,0,0,0,0,0 |
140,219,164,380,387,83,134,56,9,4,40,31,28,45,6,63,10,29,3,139,0,0,0,30,21,155,0,0,0,0 |
50,113,55,155,127,36,60,28,1,10,20,4,19,28,1,27,0,9,7,97,0,0,0,18,6,70,67,0,0,0 |
68,121,63,233,139,62,83,54,10,1,28,25,17,43,15,38,3,15,6,133,0,0,0,20,30,77,70,28,0,0 |
105,266,91,360,320,115,183,117,7,24,24,48,67,89,27,107,9,25,6,263,0,0,0,38,77,242,171,35,45,0
|]; % origin - destination matrix which can be used to identify the flow

% link between 2 adjacent stations that include [linkNo, origin, destination, distance] where distance is in meter.
links = [| 2,1,2 | 3,2,2 | 4,3,2 | 5,4,2 | 6,5,2 | 7,6,2 | 8,7,6 | 9,8,4 | 10,9,2 | 11,10,2 | 12,11,2 | 13,12,3 | 14,13,3 | 15,14,3 | 16,15,2 | 17,16,2 | 18,17,3 | 19,18,2 | 20,19,3 | 21,20,7 | 22,21,3 | 23,22,3 | 24,20,5 | 25,24,3 | 26,25,3 | 27,26,3 | 28,27,4 | 29,28,3 | 30,29,3 |]; 

% Capacity of each link on 1 direction. Presume that capacity is the same for other direction
linkCapacity = [ 36,36,36,36,36,36,36,36,36,36,36,36,36,36,36,36,36,36,36,15,15,15,20,20,20,20,20,20,20 ];   
% number of passenger travelling on each link - This can be calculated from OD matrix with predefine travelling routes
linkFlow = [ 4886,8562,11842,19203,26122,27679,30327,31100,29762,28010,27296,25243,24325,23327,22996,22574,22061,21529,20282,6714,5565,3732,11748,9617,8111,7012,5208,4200,2862 ];

trainCapacity = [1100]; % number of passengers a train can carry. More array item if more trains are used
trainCost = [3]; % cost of train for each meter running

% There are 2 objective, transfer and operation, which need to be combined into single objective function. We define weight on each individual objective as coefficient parameteres
transferWeight = 2; 
operationWeight = 0; 