CPRCP.txt
1,2,3,4,5,6,7,8,9,10,11,12,13,14,15,16,17,18,19,20,21,22,23,24,25,26,27,28,29,30
Max Length: 27

Possible routes

1,2,3,4,5,6,7,11
1,2,3,4,5,6,7,11,12,13,14,15,16
1,2,3,4,5,6,7,11,12,13,14,15,16,17,18,19,20,21,22,23
1,2,3,4,5,6,7,11,12,13,14,15,16,17,18,19,20,21,22,23,24,25,26,27,28,29,30

8,9,10,11
8,9,10,11,12,13,14,15,16
8,9,10,11,12,13,14,15,16,17,18,19,20,21,22,23
8,9,10,11,12,13,14,15,16,17,18,19,20,21,22,23,24,25,26,27,28,29,30

11,12,13,14,15,16
11,12,13,14,15,16,17,18,19,20,21,22,23
11,12,13,14,15,16,17,18,19,20,21,22,23,24,25,26,27,28,29,30

16,17,18,19,20,21,22,23
16,17,18,19,20,21,22,23,24,25,26,27,28,29,30

23,24,25,26,27,28,29,30

Inbound OD matrix

Links
| 29,30 | 28,29 | 27,28 | 26,27 | 25,26 | 24,25 | 23,24 | 22,23 | 21,22 | 20,21 | 19,20 | 18,19 | 17,18 | 16,17 | 15,16 | 14,15 | 13,14 | 12,13 | 11,12 | 10,11 | 9,10 | 8,9 | 7,11 | 6,7 | 5,6 | 4,5 | 3,4 | 2,3 | 1,2 |

Links capacity

Links flow